Route 1: 0 26 46 15 1 85 4 2 23 0
Route 2: 0 13 68 49 21 29 6 71 18 38 87 0
Route 3: 0 59 27 11 30 66 64 65 37 36 31 77 74 0
Route 4: 0 45 67 57 84 54 88 63 44 96 32 0
Route 5: 0 34 97 14 61 7 16 12 42 0
Route 6: 0 86 24 41 69 95 100 53 19 17 25 0
Route 7: 0 81 98 39 78 79 47 91 10 80 8 60 93 0
Route 8: 0 73 58 43 48 28 72 92 89 83 3 55 0
Route 9: 0 99 5 35 40 51 56 9 20 75 82 0
Route 10: 0 52 94 22 90 62 50 76 33 70 0
